NAME : portcgen-23-26
COMMENT : portcgen N=23, seed=26
TYPE : TSP
DIMENSION : 23
EDGE_WEIGHT_TYPE : EUC_2D
NODE_COORD_SECTION
1 -173045 -56383
2 150086 -227507
3 -8510 -83073
4 -221147 344583
5 -177661 85996
6 174943 6783
7 -91892 21540
8 -344295 -103550
9 64884 227414
10 -48651 -352452
11 -282916 317655
12 -152173 -65941
13 -114761 226486
14 -161627 -274810
15 277757 -549374
16 41537 -208231
17 287827 195564
18 -178201 -318456
19 137329 37551
20 290462 -88346
21 -460053 221356
22 -118082 185688
23 371487 -524341
